ATOMIC_SPECIES
Li 6.941 Li_ONCV_PBE-1.2.upf
Cl 35.453 Cl_ONCV_PBE-1.2.upf

NUMERICAL_ORBITAL
Li_gga_8au_100Ry_4s1p.orb
Cl_gga_8au_100Ry_2s2p1d.orb

LATTICE_CONSTANT
1.8897261246257702

LATTICE_VECTORS
11.858 0.0 0.0 
0.0 11.858 0.0 
0.0 0.0 11.858 

ATOMIC_POSITIONS
Cartesian    # Cartesian(Unit is LATTICE_CONSTANT)
Li
0.0
32
3.01682  1.77597  4.37873  1  1  1
3.47660  5.23243  2.05957  1  1  1
0.90851  3.90744  4.56133  1  1  1
1.45547  -0.05347  0.89671  1  1  1
9.58599  4.38419  1.31575  1  1  1
5.33635  11.08600  4.46604  1  1  1
7.53108  3.19151  10.88540  1  1  1
6.20144  2.27490  2.29226  1  1  1
10.86000  11.28090  4.03153  1  1  1
8.72296  1.91404  5.01236  1  1  1
0.56714  5.94286  11.29220  1  1  1
4.56436  1.51683  10.93970  1  1  1
6.47417  6.48432  2.26679  1  1  1
2.67649  9.86711  5.62938  1  1  1
10.52500  6.89521  4.55821  1  1  1
7.31791  10.82390  10.75460  1  1  1
9.98168  8.34648  1.34799  1  1  1
8.55005  9.02160  5.95048  1  1  1
0.22956  2.27927  10.61770  1  1  1
5.35174  4.64974  5.89709  1  1  1
2.77623  2.83912  8.65057  1  1  1
0.72266  0.78088  7.23018  1  1  1
9.32377  4.62855  7.16868  1  1  1
7.04620  1.65735  7.19938  1  1  1
9.46563  0.30375  0.94568  1  1  1
0.33212  9.50630  8.83283  1  1  1
2.15335  5.79070  7.99947  1  1  1
3.67904  11.03680  8.96262  1  1  1
5.68956  7.47681  6.72704  1  1  1
4.38374  7.94229  10.64750  1  1  1
9.46514  7.37079  8.86447  1  1  1
9.83567  11.76610  9.57714  1  1  1
Cl
0.0
32
2.40263  3.44380  3.15593  1  1  1
4.71432  5.62464  3.99601  1  1  1
5.02722  1.62164  4.70153  1  1  1
2.01218  2.40381  6.74421  1  1  1
11.34250  5.35053  5.74131  1  1  1
5.73025  3.70554  0.70594  1  1  1
8.40485  2.87640  2.43455  1  1  1
10.28650  2.52149  11.26940  1  1  1
8.49700  7.00646  2.73858  1  1  1
11.20110  0.08803  2.05881  1  1  1
4.15535  7.02362  0.82488  1  1  1
2.06075  10.42340  7.60314  1  1  1
2.84183  11.23460  4.03930  1  1  1
5.11946  9.46550  6.20652  1  1  1
6.79921  0.74965  -0.06418  1  1  1
11.24310  6.60439  0.79167  1  1  1
10.99020  8.95220  4.58075  1  1  1
2.66309  1.24239  11.46430  1  1  1
1.50200  4.24863  10.00090  1  1  1
4.58981  1.26528  8.80842  1  1  1
4.17519  5.64115  7.14293  1  1  1
7.53446  3.25664  6.13640  1  1  1
8.18598  0.50707  8.64081  1  1  1
10.58380  1.54594  5.84851  1  1  1
0.05259  0.20666  9.59310  1  1  1
1.53699  7.84114  9.74525  1  1  1
5.13504  9.58460  9.80476  1  1  1
9.50581  10.09210  11.41870  1  1  1
8.14839  10.98370  4.15793  1  1  1
10.36210  9.23839  8.34472  1  1  1
9.08894  5.61878  9.58466  1  1  1
8.15206  7.23734  6.57717  1  1  1
