O2 bond length
1.0
    15.00 0.00 0.00
    0.00 15.00 0.00
    0.00 0.00 15.00
O
2
Cartesian
    0.00 0.00 0.00
    0.00 0.00 1.21