INPUT_PARAMETERS

#Parameters (1.General)
ntype                   2
symmetry                0
vdw_method              d3_bj

#Parameters (2.Iteration)
ecutwfc                 100
scf_thr                 1e-7
scf_nmax                120

#Parameters (3.Basis)
basis_type              lcao

#Parameters (4.Smearing)
smearing_method         gauss
smearing_sigma          0.002

#Parameters (5.Mixing)
mixing_type             pulay
mixing_beta             0.4

#Parameters (6.sfc)
calculation             scf
cal_force               1
cal_stress              1