ISTART = 0
ICHARG = 2
PREC = N

NELM = 100
ALGO = N
EDIFF = 1E-5

IBRION = 2
NSW = 100
ISIF = 2
ENCUT = 400
EDIFFG = -3E-2

ISMEAR = 0
SIGMA = 0.1